results_rootrelaxation/bin018_060_021.srr.sol
solution status: optimal solution found
objective value:                                    0
_var802_                           0.0453979144464597 	(obj:0)
_var2708_                           0.313670388588997 	(obj:0)
_var2723_                           0.133176754838701 	(obj:0)
_var2754_                           0.426532410342249 	(obj:0)
_var2755_                           0.120865268773085 	(obj:0)
_var2764_                          0.0342460028047688 	(obj:0)
_var2778_                           0.130702560434081 	(obj:0)
_var2782_                           0.215582794183283 	(obj:0)
_var2814_                           0.106942428429246 	(obj:0)
_var2817_                           0.204662997268229 	(obj:0)
_var2823_                          0.0962583227448171 	(obj:0)
_var2824_                          0.0748608944785589 	(obj:0)
_var2826_                           0.023737699989101 	(obj:0)
_var2828_                          0.0838555279060746 	(obj:0)
_var2829_                           0.162553156929316 	(obj:0)
_var2842_                          0.0115545196636104 	(obj:0)
_var2858_                           0.256186029712529 	(obj:0)
_var2862_                          0.0550141970067432 	(obj:0)
_var2871_                          0.0503799382380225 	(obj:0)
_var2880_                           0.083739923832061 	(obj:0)
_var2896_                           0.235215593033192 	(obj:0)
_var2899_                          0.0088976587775407 	(obj:0)
_var2902_                           0.173030139580416 	(obj:0)
_var2909_                            0.12254342714032 	(obj:0)
_var2911_                           0.139729291414149 	(obj:0)
_var2912_                          0.0427952577469674 	(obj:0)
_var2917_                           0.200900819855282 	(obj:0)
_var2918_                           0.314317609348889 	(obj:0)
_var2923_                           0.193236011611674 	(obj:0)
_var2929_                           0.292854779656575 	(obj:0)
_var2943_                          0.0183176250218262 	(obj:0)
_var2945_                           0.277703444811665 	(obj:0)
_var2950_                           0.169036670429954 	(obj:0)
_var2960_                           0.166654955883626 	(obj:0)
_var2961_                           0.232552656508044 	(obj:0)
_var2965_                           0.078812997188483 	(obj:0)
_var2973_                           0.248545602606429 	(obj:0)
_var2976_                           0.143454974619275 	(obj:0)
_var2977_                          0.0753993112940344 	(obj:0)
_var2978_                         0.00590733622833928 	(obj:0)
_var2979_                           0.303206124505499 	(obj:0)
_var2980_                         0.000529058988210707 	(obj:0)
_var2981_                           0.114923013702559 	(obj:0)
_var2982_                           0.121032189302254 	(obj:0)
_var2986_                          0.0534763854783169 	(obj:0)
_var2993_                           0.267161565064328 	(obj:0)
_var3011_                          0.0386700458609642 	(obj:0)
_var3012_                          0.0247564133503631 	(obj:0)
_var3013_                          0.0113406883405059 	(obj:0)
_var3015_                           0.100790490470358 	(obj:0)
_var3017_                           0.098494827551597 	(obj:0)
_var3018_                           0.105770174223075 	(obj:0)
_var3019_                           0.166560285116212 	(obj:0)
_var3021_                          0.0225334461239622 	(obj:0)
_var3023_                            0.37581799428585 	(obj:0)
_var3024_                           0.129954608276177 	(obj:0)
_var3025_                           0.182850207473423 	(obj:0)
_var3026_                          0.0993927597195446 	(obj:0)
_var3027_                           0.102917189889455 	(obj:0)
_var3029_                         0.00877512364891361 	(obj:0)
_var3030_                          0.0152974989321613 	(obj:0)
_var3033_                          0.0956574184699111 	(obj:0)
_var3037_                           0.174994653584988 	(obj:0)
_var3038_                          0.0115611584487003 	(obj:0)
_var3040_                           0.291157150818449 	(obj:0)
_var3041_                           0.164174767545923 	(obj:0)
_var3045_                          0.0193216672709396 	(obj:0)
_var3049_                          0.0671754223436973 	(obj:0)
_var3051_                           0.229922345224752 	(obj:0)
_var3053_                           0.208952129862655 	(obj:0)
_var3055_                               0.10758143156 	(obj:0)
_var3056_                          0.0459358233936727 	(obj:0)
_var3058_                          0.0574148429508052 	(obj:0)
_var3059_                           0.388365500942831 	(obj:0)
_var3064_                          0.0530435324813757 	(obj:0)
_var3066_                           0.138987922265672 	(obj:0)
_var3068_                           0.197358569352914 	(obj:0)
_var3069_                           0.148128031224456 	(obj:0)
_var3070_                          0.0711584457958768 	(obj:0)
_var3074_                          0.0753672046704019 	(obj:0)
_var3075_                          0.0831432031889491 	(obj:0)
_var3083_                          0.0131878733841965 	(obj:0)
_var3084_                           0.186988116641125 	(obj:0)
_var3085_                            0.16144877014676 	(obj:0)
_var3086_                          0.0788505291465769 	(obj:0)
_var3087_                          0.0611092092755068 	(obj:0)
_var3094_                           0.114959053426312 	(obj:0)
_var3096_                          0.0377213828943302 	(obj:0)
_var3097_                           0.117238907911824 	(obj:0)
_var3099_                          0.0303434739099602 	(obj:0)
_var3100_                           0.105421711512982 	(obj:0)
_var3103_                           0.244945315109171 	(obj:0)
_var3106_                           0.107271124311178 	(obj:0)
_var3107_                           0.183564815343663 	(obj:0)
_var3109_                           0.027441848580933 	(obj:0)
_var3112_                          0.0384665062143219 	(obj:0)
_var3113_                            0.10209251032727 	(obj:0)
_var3115_                          0.0242622905483698 	(obj:0)
_var3116_                           0.184946615674314 	(obj:0)
_var3118_                           0.102891821577711 	(obj:0)
_var3119_                         0.00352488539900379 	(obj:0)
_var3120_                          0.0693356138639988 	(obj:0)
_var3123_                           0.172744506859175 	(obj:0)
_var3124_                           0.164509730039738 	(obj:0)
_var3126_                          0.0884854548717371 	(obj:0)
_var3128_                          0.0939166813044588 	(obj:0)
_var3129_                           0.189370332308251 	(obj:0)
_var3131_                           0.160302455492133 	(obj:0)
_var3132_                           0.047380215933435 	(obj:0)
_var3133_                          0.0969104356859194 	(obj:0)
_var3137_                         0.00934723794819289 	(obj:0)
_var3139_                           0.232586614188597 	(obj:0)
_var3140_                           0.157819938101372 	(obj:0)
_var3141_                           0.115390472947587 	(obj:0)
_var3144_                           0.173320126390523 	(obj:0)
_var3145_                           0.149416130947072 	(obj:0)
_var3148_                           0.115722765533907 	(obj:0)
_var3149_                          0.0853079405024725 	(obj:0)
_var3153_                           0.187636543908772 	(obj:0)
_var3155_                          0.0437267088470151 	(obj:0)
_var3158_                           0.180229288724956 	(obj:0)
_var3159_                          0.0371000924808047 	(obj:0)
_var3160_                           0.108860329423926 	(obj:0)
_var3164_                          0.0608186015289447 	(obj:0)
_var3165_                          0.0906213147349861 	(obj:0)
_var3166_                          0.0168987506422507 	(obj:0)
_var3167_                          0.0142294573530718 	(obj:0)
_var3168_                          0.0854282483745231 	(obj:0)
_var3171_                          0.0587463408477893 	(obj:0)
_var3172_                           0.104606798992446 	(obj:0)
_var3174_                           0.042795257746967 	(obj:0)
_var3175_                           0.160762867257222 	(obj:0)
_var3176_                          0.0909215037517475 	(obj:0)
_var3177_                          0.0415994043170985 	(obj:0)
_var3178_                          0.0622281535815481 	(obj:0)
_var3179_                          0.0401701212835017 	(obj:0)
_var3180_                          0.0415058403864668 	(obj:0)
_var3181_                          0.0274135485866563 	(obj:0)
_var3182_                           0.053993837642718 	(obj:0)
_var3184_                          0.0237205323959847 	(obj:0)
_var3186_                          0.0376218156250574 	(obj:0)
_var3187_                           0.121614058416202 	(obj:0)
_var3189_                           0.097980603363359 	(obj:0)
_var3190_                         0.00904194321592641 	(obj:0)
_var3192_                           0.149607002293161 	(obj:0)
_var3193_                           0.129636053992747 	(obj:0)
_var3196_                          0.0651614214186214 	(obj:0)
_var3200_                         0.00209252189901658 	(obj:0)
_var3206_                          0.0107589960868786 	(obj:0)
_var3213_                          0.0104514215582404 	(obj:0)
